9
Generated by PyFockCalculator
C 1.1815104742972797 -0.4361489780654184 0.0295594462379788
C -0.0046122941149018 0.5134023308225482 0.0189394041586856
O -1.1898084438454377 -0.2684253117253657 0.0410139062748398
H -1.9459985623446467 0.3432585779834161 0.0004570172037101
H 0.0587683932544833 1.2012189041116361 0.9010137114137160
H 0.0505060196016738 1.1662061029625665 -0.8894983006299538
H 2.1400834935097244 0.1203179213772953 0.0332048171203032
H 1.1479297639140253 -1.0834337290260931 0.9289865473747395
H 1.1595202447580326 -1.0927373909996474 -0.8633138905232536
