9
Generated by PyFockCalculator
C 1.1942742524935195 -0.4389796628048280 0.0179790469208064
C -0.0016200430559795 0.5133340390699650 0.0040426014124499
O -1.1716911250769741 -0.2811904296352709 0.0454507806096191
H -1.9195345553953977 0.3377669223069327 -0.0070778942758529
H 0.0699401946968777 1.1931165379742013 0.8865954149603902
H -0.0138741515026400 1.2078367707462299 -0.8791151526489396
H 2.1613085816640325 0.0868990908156549 0.0670032064212706
H 1.1340356224148769 -1.0523084397002413 0.9466194681385678
H 1.1435944113328769 -1.1034624101587942 -0.8798008972633953
