9
Generated by PyFockCalculator
C 1.1833621005459170 -0.4288151480859640 0.0238270723712482
C -0.0019283570984520 0.5220659306769427 0.0164210441648280
O -1.1806205706856343 -0.2734532706786000 0.0438808264758564
H -1.9405594719809902 0.3331288349108265 -0.0049304704166974
H 0.0685751132136721 1.1992791205133928 0.9084542331750719
H 0.0228805049384414 1.1783712888543876 -0.8906780365217910
H 2.1581253813397958 0.1031191855085567 0.0365463090385838
H 1.1251882987174218 -1.0709298870568378 0.9238484744428486
H 1.1617486120154603 -1.0995893170683848 -0.8560488339867361
