9
Generated by PyFockCalculator
C 1.1826012674306432 -0.4269674835050983 0.0220854034977674
C -0.0011199633502052 0.5215477223161604 0.0146799731768611
O -1.1769186357705046 -0.2734422945110813 0.0429588064297363
H -1.9354579958790519 0.3329928250132479 -0.0055666282120103
H 0.0701093070085516 1.1964653064656183 0.9042421242728371
H 0.0135406861065326 1.1813168356071462 -0.8868855918900865
H 2.1577749906746138 0.0958653259895514 0.0422513193101245
H 1.1262133564503367 -1.0650467461949551 0.9230786105758922
H 1.1599124993518437 -1.0996186354651416 -0.8554071841537529
