9
Generated by PyFockCalculator
C 1.1862915338236053 -0.4323847831403616 0.0264886511800211
C -0.0026160483435091 0.5201655337055453 0.0173512896955946
O -1.1835388494045724 -0.2708695032207594 0.0453994477422888
H -1.9451279034835496 0.3339261212244068 -0.0038134332410444
H 0.0649310889927508 1.2008715944331692 0.9075933850385659
H 0.0333038997489639 1.1761666908491626 -0.8917451809639836
H 2.1547316380276240 0.1113210663139889 0.0327426118965914
H 1.1275860614389537 -1.0770686655647899 0.9281152510234867
H 1.1614156733896694 -1.0988389086076689 -0.8610022702126446
