9
Generated by PyFockCalculator
C 1.1863430016563858 -0.4324614044844407 0.0265039505354893
C -0.0027338530968158 0.5201380461296641 0.0173613367060440
O -1.1835516691897674 -0.2708259389117168 0.0454031728442042
H -1.9451154350580746 0.3339154826059644 -0.0038008441062691
H 0.0649163481927812 1.2008933209112935 0.9075870474216247
H 0.0333760582371783 1.1761765559146899 -0.8917640250908793
H 2.1547252398746402 0.1113762419708592 0.0327324262901109
H 1.1276144677920348 -1.0770954888750026 0.9281453400831899
H 1.1614044762228728 -1.0988268220248747 -0.8610400782123685
