9
Generated by PyFockCalculator
C 1.1835357262660060 -0.4268094182738056 0.0213860762428113
C -0.0011813406373866 0.5205583513045242 0.0132860424019438
O -1.1742652646362008 -0.2736992154582789 0.0427800834627651
H -1.9326321599545573 0.3335256936732010 -0.0059156100335533
H 0.0705799203190564 1.1948619966939658 0.9008464362918247
H 0.0079565409626323 1.1842001873896832 -0.8845189717326539
H 2.1572825447660926 0.0921418984534934 0.0463219910858513
H 1.1273650776696462 -1.0617699089125321 0.9244193588260619
H 1.1579575124353190 -1.0999267234948520 -0.8571082415363477
