9
Generated by PyFockCalculator
C 1.1816399736113909 -0.4361718079785423 0.0293461280341235
C -0.0036579828972118 0.5137799262908933 0.0187447816738659
O -1.1886288660123796 -0.2679194708155875 0.0423926325726368
H -1.9465362418939360 0.3414756982524808 -0.0001073232326425
H 0.0590237171118719 1.2011038434885140 0.9004267355436310
H 0.0500892810806489 1.1671775727171811 -0.8887488688925429
H 2.1405213800917804 0.1196177041370660 0.0326948882650683
H 1.1455529029911080 -1.0828115959463529 0.9289893722081448
H 1.1597462197817936 -1.0926404020223819 -0.8632661666546672
