9
Generated by PyFockCalculator
C 1.1910390043066459 -0.4328833288516693 0.0198311525984610
C -0.0020695037808722 0.5160865399775628 0.0076009863182008
O -1.1719362318996143 -0.2770828241005424 0.0441484903489076
H -1.9239063902278282 0.3356640262383104 -0.0066418396889325
H 0.0703726300624051 1.1931330128359876 0.8914548049095817
H -0.0061559730201438 1.1981932065106762 -0.8804352030059996
H 2.1584137138061150 0.0874041076126147 0.0592523136057212
H 1.1315228645520943 -1.0552719056532522 0.9370648643689236
H 1.1492075109404956 -1.1022088836527051 -0.8706472317956950
