9
Generated by PyFockCalculator
C 1.1867102605287470 -0.4340854203780607 0.0276369050787708
C -0.0025322416027389 0.5184935120191897 0.0176211333539142
O -1.1843385204530641 -0.2687444995393403 0.0457938011139990
H -1.9465883794887449 0.3346931560495785 -0.0030587454902276
H 0.0627746172832924 1.2008403818956852 0.9051654223822904
H 0.0382953273754863 1.1744864857719446 -0.8907094079533049
H 2.1512936768726663 0.1144732298537205 0.0318782789315755
H 1.1306306248775100 -1.0792602727074829 0.9297381829530122
H 1.1608717749231474 -1.0975366456748483 -0.8630617846271940
