9
Generated by PyFockCalculator
C 1.1767770582569335 -0.4656777101746793 0.0100889000670081
C 0.0136767532429489 0.5114790625204876 -0.0042102669969753
O -1.1792646248655445 -0.2966753164610340 0.0488964154605723
H -1.9130268103552184 0.3424157913095264 -0.0078118656983242
H 0.0679954545521888 1.1960425305072049 0.8811325768296877
H -0.0264743576650830 1.2266945653240322 -0.8786936107057406
H 2.1824387228829227 0.0975983532517887 0.0809581326309895
H 1.1394551345211013 -1.0469813733818931 0.9643759906092010
H 1.1347811401254959 -1.1019069097948997 -0.8929354824259657
