9
Generated by PyFockCalculator
C 1.1826030612301746 -0.4361606784501812 0.0291652538207919
C -0.0026788807913969 0.5144500520321478 0.0184702706942784
O -1.1871498600584856 -0.2671486207879979 0.0438292174434557
H -1.9473025735966065 0.3395365514020979 -0.0007762125752138
H 0.0592629262649859 1.2008015850361606 0.9002309915120323
H 0.0487525474163046 1.1684877620304837 -0.8882623654859559
H 2.1418170851271006 0.1189379786566490 0.0320812602632622
H 1.1423101081526696 -1.0822487687679792 0.9293853128456402
H 1.1599777291867290 -1.0930981761816556 -0.8635272414835032
