9
Generated by PyFockCalculator
C 1.1910452320481444 -0.4328915196159823 0.0198233993044309
C -0.0020718233434555 0.5160886128246898 0.0075950823199123
O -1.1719406471528393 -0.2770870384893379 0.0441505796363332
H -1.9239052064936770 0.3356668788954948 -0.0066427806899090
H 0.0703717578000171 1.1931367924756813 0.8914580986169282
H -0.0061604561542839 1.1982000428460815 -0.8804372493697454
H 2.1584191100029844 0.0874048211321132 0.0592568616236252
H 1.1315248031271068 -1.0552747034758276 0.9370775701420486
H 1.1492048245255262 -1.1022099355432480 -0.8706531933287284
