9
Generated by PyFockCalculator
C 1.1877484209178508 -0.4530158909394111 0.0163791128667693
C 0.0048433719668788 0.5109135301666595 -0.0016906777636301
O -1.1755361654147898 -0.2891828693812900 0.0475622250207780
H -1.9145285604663869 0.3402423747321552 -0.0075251771293599
H 0.0690016132239299 1.1947302109808962 0.8827392297572189
H -0.0223017516786741 1.2201720013810873 -0.8785646637943733
H 2.1724030481343206 0.0918542718071811 0.0760292216350546
H 1.1374275550724431 -1.0485442923407622 0.9576453194025213
H 1.1373237155555731 -1.1041735782165969 -0.8908071257039800
