9
Generated by PyFockCalculator
C 1.2527072851900178 -0.4236788685270417 0.0016410081839292
C 0.0203758141498254 0.5200158485687131 0.0001032786452974
O -1.1901275192928966 -0.3154052153172711 0.0508829002831747
H -1.9165980742040225 0.3502535513016620 -0.0085774130597861
H 0.0678219687098376 1.1944401792404178 0.8747955460663727
H -0.0301050706245395 1.2352370155945944 -0.8807389547356480
H 2.1296139961879983 0.0684737734065080 0.0825349845593238
H 1.1363157767728178 -1.0565909971643195 0.9873346110380556
H 1.1263296985069675 -1.1097679349573286 -0.9061423927713843
