9
Generated by PyFockCalculator
C 1.1815537393284443 -0.4361272367027523 0.0295381797055768
C -0.0045600759740584 0.5134774964671805 0.0188859295427937
O -1.1897223876008596 -0.2683882541075872 0.0411474445299850
H -1.9460245406285288 0.3431012531212200 0.0003895971421470
H 0.0587893311338923 1.2011971274386051 0.9009959249652554
H 0.0504169395783432 1.1662996887480392 -0.8894423058789793
H 2.1402026988735727 0.1202856652145169 0.0331656824011451
H 1.1477001368180957 -1.0834096230586470 0.9290366138701907
H 1.1595319515127154 -1.0927812456297914 -0.8633455598065429
