9
Generated by PyFockCalculator
C 1.1848595971905942 -0.4304481866718811 0.0250365113537772
C -0.0023840007596264 0.5214722557265774 0.0169641135791184
O -1.1825707153302696 -0.2724916380022933 0.0446112068892951
H -1.9426698780396341 0.3332116270119257 -0.0044537853086783
H 0.0670860092082579 1.2003618406009138 0.9088957701678951
H 0.0278149055500233 1.1774617299256385 -0.8917925205464274
H 2.1572006938968888 0.1071844773694915 0.0344080696088552
H 1.1257154173475556 -1.0740345740617518 0.9257920949859619
H 1.1618040370965821 -1.0994934561614631 -0.8582206618042925
