9
Generated by PyFockCalculator
C 1.1848672758973124 -0.4304507162096129 0.0250431139006519
C -0.0024039849518701 0.5214692414942332 0.0169710567224994
O -1.1825830179164305 -0.2724942084082592 0.0446133989751215
H -1.9426562497322248 0.3332081421723389 -0.0044543103574360
H 0.0670887644437029 1.2003659361966361 0.9088953345795548
H 0.0278266577374683 1.1774673499192689 -0.8917990600550525
H 2.1572017837597643 0.1071978700862524 0.0344049942254091
H 1.1257132533589949 -1.0740410537928713 0.9257981095264725
H 1.1618017058745240 -1.0994984529119964 -0.8582319272923866
