9
Generated by PyFockCalculator
C 1.1826001763911127 -0.4269656778789022 0.0220858354705541
C -0.0011095471498153 0.5215582942994801 0.0146801401960159
O -1.1769229484536308 -0.2734514881801873 0.0429579513719811
H -1.9354717120198979 0.3329972230662201 -0.0055649758767334
H 0.0701076753612208 1.1964676615062371 0.9042465820663242
H 0.0135448535869764 1.1813142718073846 -0.8868888046603377
H 2.1577770290554286 0.0958675287490029 0.0422475443516399
H 1.1262144105076324 -1.0650536004298072 0.9230815985067276
H 1.1599156350562643 -1.0996213054939525 -0.8554091109463935
