9
Generated by PyFockCalculator
C 1.1833562603617591 -0.4288108812259576 0.0238381743902220
C -0.0019482274925662 0.5220547422211879 0.0164354159294537
O -1.1806074171378602 -0.2734525585558901 0.0438804923252292
H -1.9405514108922586 0.3331312238462989 -0.0049325360189890
H 0.0685797507118502 1.1992749451556663 0.9084472239072681
H 0.0228813410884366 1.1783751834670322 -0.8906823723390555
H 2.1581278298965527 0.1031213363994158 0.0365465742367376
H 1.1251857613000258 -1.0709239564608422 0.9238396188002947
H 1.1617476840440566 -1.0995933614597007 -0.8560519252571911
