8
Generated by PyFockCalculator
C 0.0000474985721462 0.0000439321121415 0.7622852011324427
C 0.0000474973417324 0.0000536150826681 -0.7623078409465248
H 0.0000169212414939 1.0338691882645517 1.1660872966450395
H -0.8952693202044619 -0.5168861609412545 1.1660720637404109
H 0.8953559312356332 -0.5168876925800895 1.1660780832739008
H 0.0000169212027397 -1.0337870251235612 -1.1660453495286507
H -0.8952839613790113 0.5169509462617645 -1.1660426000761357
H 0.8953706113209717 0.5169524848772497 -1.1660486170805071
