50
Ring with 25 units, R=12.732 A, circumference=80.000 A
Li	0.0	12.732395447351628	0.0
H	1.5957922924360057	12.631996706267078	0.0
Li	3.1664179871401874	12.332383831135632	0.0
H	4.687107378660748	11.838281895978167	0.0
Li	6.1338782868776	11.157483183474309	0.0
H	7.483914270309113	10.300724296009678	0.0
Li	8.715924455024167	9.281516833042545	0.0
H	9.810479304442598	8.115934305108928	0.0
Li	10.750317034733701	6.82235864495959	0.0
H	11.520615843458941	5.421190313499733	0.0
Li	12.109227658250513	3.9345265723338647	0.0
H	12.506869719169503	2.3858129967500448	0.0
Li	12.707270973375364	0.7994737249918751	0.0
H	12.707270973375364	-0.7994737249918706	0.0
Li	12.506869719169503	-2.385812996750043	0.0
H	12.109227658250514	-3.9345265723338634	0.0
Li	11.52061584345894	-5.421190313499733	0.0
H	10.7503170347337	-6.822358644959594	0.0
Li	9.810479304442598	-8.115934305108928	0.0
H	8.715924455024167	-9.281516833042547	0.0
Li	7.483914270309114	-10.300724296009678	0.0
H	6.133878286877598	-11.157483183474309	0.0
Li	4.687107378660751	-11.838281895978167	0.0
H	3.166417987140188	-12.332383831135632	0.0
Li	1.5957922924360093	-12.631996706267078	0.0
H	1.5592687330077503e-15	-12.732395447351628	0.0
Li	-1.5957922924360062	-12.631996706267078	0.0
H	-3.16641798714019	-12.332383831135632	0.0
Li	-4.687107378660747	-11.838281895978168	0.0
H	-6.133878286877601	-11.157483183474307	0.0
Li	-7.483914270309107	-10.300724296009683	0.0
H	-8.715924455024165	-9.28151683304255	0.0
Li	-9.8104793044426	-8.115934305108926	0.0
H	-10.750317034733705	-6.822358644959587	0.0
Li	-11.520615843458943	-5.421190313499726	0.0
H	-12.109227658250514	-3.9345265723338554	0.0
Li	-12.506869719169503	-2.3858129967500434	0.0
H	-12.707270973375364	-0.799473724991871	0.0
Li	-12.707270973375364	0.7994737249918662	0.0
H	-12.506869719169503	2.385812996750039	0.0
Li	-12.109227658250514	3.9345265723338616	0.0
H	-11.520615843458941	5.421190313499732	0.0
Li	-10.7503170347337	6.822358644959593	0.0
H	-9.810479304442596	8.115934305108931	0.0
Li	-8.715924455024172	9.281516833042543	0.0
H	-7.483914270309116	10.300724296009678	0.0
Li	-6.13387828687761	11.157483183474303	0.0
H	-4.687107378660758	11.838281895978163	0.0
Li	-3.1664179871401945	12.33238383113563	0.0
H	-1.5957922924360108	12.631996706267078	0.0
