20
Ring with 10 units, R=5.093 A, circumference=32.000 A
Li	0.0	5.092958178940651	0.0
H	1.5738106289335454	4.843691063300205	0.0
Li	2.9935657081236453	4.120289718403871	0.0
H	4.120289718403871	2.9935657081236453	0.0
Li	4.843691063300205	1.5738106289335458	0.0
H	5.092958178940651	3.1185374660155004e-16	0.0
Li	4.843691063300206	-1.5738106289335452	0.0
H	4.120289718403871	-2.9935657081236444	0.0
Li	2.9935657081236458	-4.120289718403871	0.0
H	1.573810628933546	-4.843691063300205	0.0
Li	6.237074932031001e-16	-5.092958178940651	0.0
H	-1.573810628933545	-4.843691063300206	0.0
Li	-2.9935657081236444	-4.120289718403871	0.0
H	-4.120289718403871	-2.9935657081236458	0.0
Li	-4.843691063300205	-1.5738106289335463	0.0
H	-5.092958178940651	-9.355612398046502e-16	0.0
Li	-4.843691063300206	1.5738106289335447	0.0
H	-4.120289718403872	2.993565708123644	0.0
Li	-2.993565708123646	4.120289718403871	0.0
H	-1.573810628933547	4.843691063300205	0.0
