30
Ring with 15 units, R=7.639 A, circumference=48.000 A
Li	0.0	7.639437268410976	0.0
H	1.5883283193715307	7.472497235052614	0.0
Li	3.1072390695416408	6.978973215502446	0.0
H	4.490348562185467	6.180434577605807	0.0
Li	5.677208275578776	5.111781291652296	0.0
H	6.615946745061504	3.819718634205489	0.0
Li	7.265536594950307	2.3607159434003187	0.0
H	7.597587631727109	0.7985386378966396	0.0
Li	7.59758763172711	-0.7985386378966386	0.0
H	7.265536594950308	-2.3607159434003178	0.0
Li	6.615946745061505	-3.8197186342054867	0.0
H	5.677208275578778	-5.111781291652294	0.0
Li	4.490348562185468	-6.180434577605806	0.0
H	3.107239069541643	-6.978973215502445	0.0
Li	1.5883283193715307	-7.472497235052614	0.0
H	9.355612398046502e-16	-7.639437268410976	0.0
Li	-1.5883283193715287	-7.472497235052614	0.0
H	-3.1072390695416385	-6.978973215502448	0.0
Li	-4.490348562185466	-6.180434577605807	0.0
H	-5.677208275578774	-5.1117812916522976	0.0
Li	-6.615946745061502	-3.8197186342054916	0.0
H	-7.265536594950307	-2.3607159434003195	0.0
Li	-7.597587631727109	-0.7985386378966455	0.0
H	-7.59758763172711	0.7985386378966359	0.0
Li	-7.265536594950308	2.360715943400317	0.0
H	-6.615946745061504	3.819718634205489	0.0
Li	-5.677208275578774	5.1117812916522976	0.0
H	-4.4903485621854635	6.180434577605809	0.0
Li	-3.1072390695416408	6.978973215502446	0.0
H	-1.588328319371528	7.472497235052614	0.0
