9
Generated by PyFockCalculator
C 1.1841857059722951 -0.4359347828779866 0.0289205988000401
C -0.0021693239800416 0.5154057633066554 0.0181693979655618
O -1.1858901614783466 -0.2666549386505405 0.0449735124796553
H -1.9477106364107721 0.3376173761130990 -0.0014760552895956
H 0.0597859819310159 1.2005870944153454 0.9008558199107357
H 0.0463696625617926 1.1702149803450408 -0.8884016641254910
H 2.1441109426667571 0.1180966438676011 0.0316329288134058
H 1.1385688311771567 -1.0816519538258811 0.9299702037436826
H 1.1601839202036612 -1.0941805917355993 -0.8639180851590214
