9
Generated by PyFockCalculator
C 1.1835348687373624 -0.4268041437713217 0.0213774178114124
C -0.0011812518768001 0.5205551198929812 0.0132778234361881
O -1.1742531049952554 -0.2736955708003035 0.0427818259825320
H -1.9326324947309235 0.3335281425953867 -0.0059171762961850
H 0.0705790543085719 1.1948585458408654 0.9008441660808755
H 0.0079553718971267 1.1841923575224191 -0.8845084276857932
H 2.1572759902367693 0.0921390105333263 0.0463226397867461
H 1.1273634620613655 -1.0617691515312366 0.9244188743403773
H 1.1579566460578434 -1.0999214766620904 -0.8570999444723723
