9
Generated by PyFockCalculator
C 1.1867034532990255 -0.4341350300340642 0.0276514772334592
C -0.0025296570336037 0.5184091043143434 0.0176201968984322
O -1.1843276595609331 -0.2686457637306710 0.0458051219923541
H -1.9466048981587405 0.3346927252746403 -0.0030481298034354
H 0.0627295929321095 1.2008351376497333 0.9051174185637481
H 0.0383854623949598 1.1744442446842331 -0.8906786601643628
H 2.1512211845678086 0.1145335231692216 0.0318555896358780
H 1.1306791083163916 -1.0792860195076093 0.9297452386877663
H 1.1608629909011567 -1.0974867903337044 -0.8630666552301461
