9
Generated by PyFockCalculator
C 1.1942642663491014 -0.4389739175236476 0.0179766900496410
C -0.0016087546434983 0.5133335897735647 0.0040421028231478
O -1.1716942447614647 -0.2811901478932041 0.0454502210192269
H -1.9195316973723495 0.3377635878721464 -0.0070772955105847
H 0.0699397607009140 1.1931139207523869 0.8865908114610621
H -0.0138755750308208 1.2078356495932079 -0.8791110248766660
H 2.1613102742284420 0.0869001703062920 0.0670043552737419
H 1.1340354741254983 -1.0523085402964427 0.9466211918638388
H 1.1435936748078439 -1.1034619044125833 -0.8798004599515674
