9
Generated by PyFockCalculator
C 1.1816314872974867 -0.4361733445491036 0.0293531574286981
C -0.0036578972404484 0.5137845103759026 0.0187486329075071
O -1.1886368723047418 -0.2679267849003020 0.0423868267468141
H -1.9465444417043367 0.3415107588733089 -0.0001075610943612
H 0.0590187118277013 1.2011019532206069 0.9004245240678345
H 0.0501047886303098 1.1671567946384029 -0.8887558079428224
H 2.1405013369778652 0.1196262679629195 0.0327048094505087
H 1.1455947860631448 -1.0828249366448317 0.9290014834965766
H 1.1597401711769781 -1.0926434319869864 -0.8632852601257793
