9
Generated by PyFockCalculator
C 1.1841636313309836 -0.4359473127095362 0.0289303021782628
C -0.0021320569025532 0.5154140116240343 0.0181741555197903
O -1.1859281865570883 -0.2666912746249052 0.0449722363302518
H -1.9477283933677809 0.3376673552043252 -0.0014702862372012
H 0.0597693117600149 1.2005846053409923 0.9008299454630389
H 0.0464376158595194 1.1701739790801871 -0.8883915891265463
H 2.1440465147251766 0.1181296901868851 0.0316297256728375
H 1.1386324693554608 -1.0816754052610920 0.9299724816621761
H 1.1601767413483828 -1.0941551604870399 -0.8639226474153041
