9
Generated by PyFockCalculator
C 1.1767770582571453 -0.4656777101748206 0.0100889000670116
C 0.0136767532424548 0.5114790625203123 -0.0042102669970190
O -1.1792646248654117 -0.2966753164610059 0.0488964154604883
H -1.9130268103550783 0.3424157913094641 -0.0078118656982419
H 0.0679954545523027 1.1960425305074376 0.8811325768301355
H -0.0264743576648555 1.2266945653240213 -0.8786936107060707
H 2.1824387228827948 0.0975983532520321 0.0809581326309251
H 1.1394551345210044 -1.0469813733819309 0.9643759906093523
H 1.1347811401254224 -1.1019069097948304 -0.8929354824261232
