9
Generated by PyFockCalculator
C 1.1858006609657032 -0.4353479423020129 0.0284942215523827
C -0.0022353604540931 0.5167529266883070 0.0178936358082731
O -1.1848794422690625 -0.2671787383551201 0.0456855028619286
H -1.9476643404112128 0.3360755260868454 -0.0022410240103308
H 0.0608917180330341 1.2006296394881342 0.9025620036698724
H 0.0429888652570445 1.1722426996697946 -0.8893113829172417
H 2.1473322367447936 0.1168160952001912 0.0314729415743896
H 1.1345903103169499 -1.0808115989626894 0.9302705209901424
H 1.1604542479809969 -1.0957439497431367 -0.8639655647212675
