9
Generated by PyFockCalculator
C 1.1857652292480951 -0.4353422400983228 0.0285175198506291
C -0.0022029986681950 0.5167239329541909 0.0179022259973553
O -1.1849000716693081 -0.2671581440250373 0.0456720070250860
H -1.9476944310621640 0.3361102956679609 -0.0022161961286515
H 0.0608458863538204 1.2006232879198051 0.9024959633538157
H 0.0430864997604083 1.1721929749920250 -0.8892762280055813
H 2.1472372403091677 0.1168524360864931 0.0314752434638556
H 1.1346994488490294 -1.0808490253402376 0.9302885352378883
H 1.1604461021132562 -1.0957168896036680 -0.8640017577857952
