9
Generated by PyFockCalculator
C 1.1877500014151712 -0.4530192502837315 0.0163787858488004
C 0.0048349449062190 0.5109049365977771 -0.0016902968694946
O -1.1755324217924361 -0.2891787881696645 0.0475620418589756
H -1.9145268905500625 0.3402414254799206 -0.0075252518958559
H 0.0690021938831943 1.1947329496501087 0.8827418058206294
H -0.0223014942666103 1.2201748447727159 -0.8785671686821817
H 2.1724038804446781 0.0918543507384766 0.0760290304561556
H 1.1374272141674169 -1.0485429190441271 0.9576433885010103
H 1.1373238199111215 -1.1041717914976834 -0.8908048713968985
