9
Generated by PyFockCalculator
C 1.1825751431872416 -0.4361532612213987 0.0291617830043805
C -0.0027087368378001 0.5144211189236308 0.0184723335622157
O -1.1871559868678181 -0.2671410893221514 0.0438010628811858
H -1.9472803307632605 0.3395465215399984 -0.0007613061116850
H 0.0592611411300866 1.2008075205238111 0.9002314877526632
H 0.0487656887918664 1.1684717101758306 -0.8882595428341562
H 2.1418043862844520 0.1189359576859125 0.0320901450458804
H 1.1423525700073482 -1.0822456948731243 0.9293611845304004
H 1.1599801702952866 -1.0930842122858218 -0.8635021726782298
